Problem:    problema_das_misturas_racao
Rows:       4
Columns:    3
Non-zeros:  12
Status:     OPTIMAL
Objective:  custo = 0.59 (MINimum)

   No.   Row name   St   Activity     Lower bound   Upper bound    Marginal
------ ------------ -- ------------- ------------- ------------- -------------
     1 custo        B           0.59                             
     2 r1[Proteina] NL           0.3           0.3                         1.9 
     3 r1[Calcio]   NL           0.5           0.5                         1.6 
     4 r2           NS             1             1             =         -0.78 

   No. Column name  St   Activity     Lower bound   Upper bound    Marginal
------ ------------ -- ------------- ------------- ------------- -------------
     1 x[Osso]      B            0.6             0               
     2 x[Soja]      B            0.2             0               
     3 x[Peixe]     B            0.2             0               

Karush-Kuhn-Tucker optimality conditions:

KKT.PE: max.abs.err = 5.55e-17 on row 2
        max.rel.err = 3.47e-17 on row 2
        High quality

KKT.PB: max.abs.err = 0.00e+00 on row 0
        max.rel.err = 0.00e+00 on row 0
        High quality

KKT.DE: max.abs.err = 2.22e-16 on column 1
        max.rel.err = 6.38e-17 on column 3
        High quality

KKT.DB: max.abs.err = 0.00e+00 on row 0
        max.rel.err = 0.00e+00 on row 0
        High quality

End of output
